Reading model...
...model read.
creating competitive generators file...
...competitive generators recorded.
Loading data...
.. real-time data read.
Compiling instance...
...instance created.
Creating Offer Mitigation (model will solve as dispatch if TRUE)...
...storage offer mitigation file created
Converting model to MPEC...
...converted
NOTE: initial MIP solve with only storage competitive to get feasible solution
Solving...

Welcome to IBM(R) ILOG(R) CPLEX(R) Interactive Optimizer 12.10.0.0
  with Simplex, Mixed Integer & Barrier Optimizers
5725-A06 5725-A29 5724-Y48 5724-Y49 5724-Y54 5724-Y55 5655-Y21
Copyright IBM Corp. 1988, 2019.  All Rights Reserved.

Type 'help' for a list of available commands.
Type 'help' followed by a command name for more
information on commands.

CPLEX> Logfile 'cplex.log' closed.
Logfile 'C:\Users\wenmi\Desktop\competitiveMPEC\logs\tmp1wg2luzp.cplex.log' open.
CPLEX> New value for parallel optimization mode: -1
CPLEX> New value for mixed integer optimality gap tolerance: 0.05
CPLEX> New value for deterministic time limit in ticks: 100000
CPLEX> Problem 'C:\Users\wenmi\Desktop\competitiveMPEC\logs\tmpa2zvrc_x.pyomo.lp' read.
Read time = 0.31 sec. (27.41 ticks)
CPLEX> Problem name         : C:\Users\wenmi\Desktop\competitiveMPEC\logs\tmpa2zvrc_x.pyomo.lp
Objective sense      : Maximize
Variables            :  107779  [Nneg: 1,  Box: 44054,  Free: 8928,
                                 Binary: 54796]
Objective nonzeros   :   17522
Linear constraints   :  246995  [Less: 82866,  Greater: 118424,  Equal: 45705]
  Nonzeros           :  580829
  RHS nonzeros       :  134640

Variables            : Min LB: -5000.000        Max UB: 1000000.       
Objective nonzeros   : Min   : 0.1944444        Max   : 2500.000       
Linear constraints   :
  Nonzeros           : Min   : 0.1944444        Max   : 1000000.       
  RHS nonzeros       : Min   : 0.1944444        Max   : 1000000.       
CPLEX> Version identifier: 12.10.0.0 | 2019-11-26 | 843d4de2ae
CPXPARAM_Parallel                                -1
CPXPARAM_DetTimeLimit                            100000
CPXPARAM_MIP_Tolerances_MIPGap                   0.050000000000000003
Tried aggregator 3 times.
MIP Presolve eliminated 181831 rows and 41552 columns.
MIP Presolve added 6048 rows and 0 columns.
MIP Presolve modified 48936 coefficients.
Aggregator did 25836 substitutions.
Reduced MIP has 45376 rows, 38759 columns, and 125776 nonzeros.
Reduced MIP has 15251 binaries, 0 generals, 0 SOSs, and 0 indicators.
Presolve time = 0.34 sec. (328.44 ticks)
Probing fixed 747 vars, tightened 6896 bounds.
Probing time = 0.08 sec. (14.38 ticks)
Tried aggregator 2 times.
Detecting symmetries...
MIP Presolve eliminated 1686 rows and 1494 columns.
MIP Presolve modified 5500 coefficients.
Aggregator did 60 substitutions.
Reduced MIP has 43630 rows, 37205 columns, and 120730 nonzeros.
Reduced MIP has 14504 binaries, 0 generals, 0 SOSs, and 0 indicators.
Presolve time = 0.13 sec. (206.62 ticks)
Probing fixed 0 vars, tightened 229 bounds.
Probing time = 0.17 sec. (19.19 ticks)
Clique table members: 81825.
MIP emphasis: balance optimality and feasibility.
MIP search method: dynamic search.
Parallel mode: opportunistic, using up to 16 threads.
Root relaxation solution time = 0.53 sec. (1673.00 ticks)

        Nodes                                         Cuts/
   Node  Left     Objective  IInf  Best Integer    Best Bound    ItCnt     Gap

      0     0       68.2691   252                     68.2691     9452         
*     0     0      integral     0       68.2691       68.2691     9452    0.00%
Elapsed time = 1.81 sec. (2928.17 ticks, tree = 0.01 MB, solutions = 1)

Root node processing (before b&c):
  Real time             =    1.83 sec. (2931.96 ticks)
Parallel b&c, 16 threads:
  Real time             =    0.00 sec. (0.00 ticks)
  Sync time (average)   =    0.00 sec.
  Wait time (average)   =    0.00 sec.
                          ------------
Total (root+branch&cut) =    1.83 sec. (2931.96 ticks)

Solution pool: 1 solution saved.

MIP - Integer optimal solution:  Objective =  6.8269107639e+01
Solution time =    1.83 sec.  Iterations = 9452  Nodes = 0
Deterministic time = 2932.27 ticks  (1604.09 ticks/sec)

CPLEX> Incumbent solution written to file 'C:\Users\wenmi\Desktop\competitiveMPEC\logs\tmp2orbur2f.cplex.sol'.
CPLEX> NOTE: no warmstart specified for MIP iteration, default behavior is true
NOTE: resolving with all competitive generators using storage-only solution to warmstart
Solving...

Welcome to IBM(R) ILOG(R) CPLEX(R) Interactive Optimizer 12.10.0.0
  with Simplex, Mixed Integer & Barrier Optimizers
5725-A06 5725-A29 5724-Y48 5724-Y49 5724-Y54 5724-Y55 5655-Y21
Copyright IBM Corp. 1988, 2019.  All Rights Reserved.

Type 'help' for a list of available commands.
Type 'help' followed by a command name for more
information on commands.

CPLEX> Logfile 'cplex.log' closed.
Logfile 'C:\Users\wenmi\Desktop\competitiveMPEC\logs\tmpq4vog31j.cplex.log' open.
CPLEX> New value for parallel optimization mode: -1
CPLEX> New value for mixed integer optimality gap tolerance: 0.05
CPLEX> New value for deterministic time limit in ticks: 100000
CPLEX> Problem 'C:\Users\wenmi\Desktop\competitiveMPEC\logs\tmp_mx36q__.pyomo.lp' read.
Read time = 0.31 sec. (27.45 ticks)
CPLEX> MIP start file 'C:\Users\wenmi\Desktop\competitiveMPEC\logs\tmp69m8l8tq.cplex.mst' read.
CPLEX> Problem name         : C:\Users\wenmi\Desktop\competitiveMPEC\logs\tmp_mx36q__.pyomo.lp
Objective sense      : Maximize
Variables            :  109219  [Nneg: 1,  Box: 45494,  Free: 8928,
                                 Binary: 54796]
Objective nonzeros   :   18914
Linear constraints   :  246995  [Less: 82866,  Greater: 118424,  Equal: 45705]
  Nonzeros           :  580829
  RHS nonzeros       :  134640

Variables            : Min LB: -5000.000        Max UB: 1000000.       
Objective nonzeros   : Min   : 0.1944444        Max   : 2500.000       
Linear constraints   :
  Nonzeros           : Min   : 0.1944444        Max   : 1000000.       
  RHS nonzeros       : Min   : 0.1944444        Max   : 1000000.       
CPLEX> Version identifier: 12.10.0.0 | 2019-11-26 | 843d4de2ae
CPXPARAM_Parallel                                -1
CPXPARAM_DetTimeLimit                            100000
CPXPARAM_MIP_Tolerances_MIPGap                   0.050000000000000003
1 of 1 MIP starts provided solutions.
MIP start 'm1' defined initial solution with objective 1071.9439.
Tried aggregator 3 times.
MIP Presolve eliminated 181831 rows and 42992 columns.
MIP Presolve added 6048 rows and 0 columns.
MIP Presolve modified 48936 coefficients.
Aggregator did 25836 substitutions.
Reduced MIP has 45376 rows, 38759 columns, and 125776 nonzeros.
Reduced MIP has 15251 binaries, 0 generals, 0 SOSs, and 0 indicators.
Presolve time = 0.33 sec. (329.15 ticks)
Probing fixed 747 vars, tightened 6896 bounds.
Probing time = 0.08 sec. (14.38 ticks)
Tried aggregator 2 times.
Detecting symmetries...
MIP Presolve eliminated 1686 rows and 1494 columns.
MIP Presolve modified 5500 coefficients.
Aggregator did 60 substitutions.
Reduced MIP has 43630 rows, 37205 columns, and 120730 nonzeros.
Reduced MIP has 14504 binaries, 0 generals, 0 SOSs, and 0 indicators.
Presolve time = 0.13 sec. (206.63 ticks)
Probing fixed 0 vars, tightened 250 bounds.
Probing time = 0.14 sec. (15.08 ticks)
Clique table members: 81194.
MIP emphasis: balance optimality and feasibility.
MIP search method: dynamic search.
Parallel mode: opportunistic, using up to 16 threads.
Root relaxation solution time = 0.61 sec. (1649.51 ticks)

        Nodes                                         Cuts/
   Node  Left     Objective  IInf  Best Integer    Best Bound    ItCnt     Gap

*     0+    0                         1071.9439   1.19845e+07              --- 
      0     0    35861.8453   374     1071.9439    35861.8453    10893     --- 
      0     0    35146.2500   374     1071.9439     Cuts: 402    11658     --- 
      0     0    34802.2508   374     1071.9439     Cuts: 280    12041     --- 
      0     0    34767.1907   374     1071.9439     Cuts: 133    12159     --- 
      0     0    34766.9289   374     1071.9439      Cuts: 46    12185     --- 
      0     0    34766.4815   374     1071.9439       Cuts: 7    12192     --- 
      0     2    34766.4815   548     1071.9439    34766.4815    12192     --- 
Elapsed time = 5.13 sec. (5575.33 ticks, tree = 0.02 MB, solutions = 1)
    154    34    34032.3339   502     1071.9439    34597.1182    12549     --- 
    243    74    33371.2252   428     1071.9439    34597.1182    13108     --- 
    362    57    31969.2241   420     1071.9439    34597.1182    12838     --- 
    518   234    32881.3476   454     1071.9439    34597.1182    15252     --- 
    659   175    31256.2553   376     1071.9439    34597.1182    14465     --- 
    789   403    23436.3950   230     1071.9439    34597.1182    18185     --- 
    913   503    24044.6110   216     1071.9439    34597.1182    19830     --- 
   1027   701    20743.8924   216     1071.9439    34597.1182    24261     --- 
   1165   983    23417.2310   230     1071.9439    34597.1182    35097     --- 
   1681  1308    17151.0812   160     1071.9439    34597.1182    40715     --- 
Elapsed time = 21.22 sec. (8695.42 ticks, tree = 14.39 MB, solutions = 1)
   2245  1845    17998.6034   116     1071.9439    34597.1182    47894     --- 
   2839  1872    13241.4939    96     1071.9439    34575.4117    48289     --- 
   3387  2840        cutoff           1071.9439    34575.4117    65214     --- 
   4095  2875     2004.0398    47     1071.9439    34575.4117    65924     --- 
   4610  3427    34115.3310   453     1071.9439    34490.7392    75514     --- 
   4922  3637    34058.6612   458     1071.9439    34490.7392    79258     --- 

Performing restart 1

Repeating presolve.
Tried aggregator 3 times.
MIP Presolve eliminated 1524 rows and 1374 columns.
MIP Presolve modified 42857 coefficients.
Aggregator did 395 substitutions.
Reduced MIP has 41711 rows, 35436 columns, and 114193 nonzeros.
Reduced MIP has 13913 binaries, 0 generals, 0 SOSs, and 0 indicators.
Presolve time = 0.13 sec. (138.75 ticks)
Tried aggregator 1 time.
MIP Presolve eliminated 917 rows and 774 columns.
MIP Presolve modified 16716 coefficients.
Reduced MIP has 40794 rows, 34662 columns, and 111574 nonzeros.
Reduced MIP has 13526 binaries, 0 generals, 0 SOSs, and 0 indicators.
Presolve time = 0.05 sec. (51.60 ticks)
Tried aggregator 1 time.
MIP Presolve modified 12830 coefficients.
Reduced MIP has 40794 rows, 34662 columns, and 111574 nonzeros.
Reduced MIP has 13526 binaries, 0 generals, 0 SOSs, and 0 indicators.
Presolve time = 0.09 sec. (107.20 ticks)
Represolve time = 0.91 sec. (499.66 ticks)
   4966     0    34744.3285   650     1071.9439     Cuts: 531   102840     --- 
   4966     0    34741.0374   650     1071.9439      Cuts: 84   102967     --- 
   4966     0    34740.0224   650     1071.9439     Cuts: 142   103094     --- 
   4966     0    34739.1196   650     1071.9439     Cuts: 123   103171     --- 
   4966     0    34737.5605   650     1071.9439      Cuts: 49   103225     --- 
   4966     0    34736.7794   650     1071.9439     Cuts: 113   103301     --- 
   4966     0    34736.7794   650     1071.9439      Cuts: 26   103326     --- 
   4966     2    34736.7794   520     1071.9439    34490.7392   103326     --- 
   4995    34    31070.6098   466     1071.9439    32994.3605   104408     --- 
   5074    34    27002.9436   535     1071.9439    32994.3605   104434     --- 
   5176    39    28896.3932   512     1071.9439    32994.3605   104584     --- 
Elapsed time = 77.05 sec. (26800.73 ticks, tree = 0.16 MB, solutions = 1)
   5287    87    22147.4181   492     1071.9439    32994.3605   106720     --- 
   5391    55    17087.5624   577     1071.9439    32994.3605   105418     --- 
   5534   299     6086.4319   578     1071.9439    32994.3605   116105     --- 
   5696   508     7912.6097   495     1071.9439    32994.3605   125018     --- 
   5875   338     2894.4294   619     1071.9439    32994.3605   117703     --- 
   6118   613     2989.4975   573     1071.9439    32994.3605   129423     --- 
   6411   380    16160.5726   409     1071.9439    32994.3605   119486     --- 
   6733   716    14857.6196   340     1071.9439    32964.1766   133437     --- 
   7100  1519    22020.5391   417     1071.9439    32964.1766   159449     --- 
   7582  1364     9729.9072   381     1071.9439    32964.1766   154909     --- 
Elapsed time = 128.47 sec. (36376.71 ticks, tree = 21.21 MB, solutions = 1)
   8067  1392     1207.1453   334     1071.9439    32964.1766   155659     --- 
   8564   901    12962.1863   337     1071.9439    32416.7994   139121     --- 
   9185   964    13796.7161   355     1071.9439    32416.7994   141336     --- 
   9749  1553    19080.5519   348     1071.9439    32416.7994   160438     --- 
  10283  4100     5622.2189   330     1071.9439    32416.7994   234103     --- 
  10890  1878    21032.1677   364     1071.9439    32416.7994   170933     --- 
  11433  2383    31117.8827   481     1071.9439    32416.7994   184794     --- 
  11926  3144     2053.4685   288     1071.9439    32416.7994   205895     --- 
  12414  5561     5460.2980   324     1071.9439    32416.7994   274214     --- 
  12944  6842     8705.8152   369     1071.9439    31531.7284   308991     --- 
Elapsed time = 177.14 sec. (45938.38 ticks, tree = 96.05 MB, solutions = 1)
  13480  5350    17654.0690   434     1071.9439    31531.7284   269536     --- 
  14013  6167     7955.6352   324     1071.9439    31531.7284   290651     --- 
  14563  6211    24157.5982   464     1071.9439    31531.7284   291476     --- 
  15128  5720    19979.0145   401     1071.9439    31531.7284   278491     --- 
  15734  5766     2628.0733   319     1071.9439    31531.7284   279625     --- 
  16355  6330     2849.8658   291     1071.9439    31531.7284   294885     --- 
  16877  7693     7642.1207   326     1071.9439    30693.3807   331723     --- 
  17506  8389    12183.7286   399     1071.9439    30693.3807   350613     --- 
  18107 11091     5222.5717   319     1071.9439    30383.0579   432685     --- 
  18748  9238     5852.6568   301     1071.9439    30383.0579   377793     --- 
Elapsed time = 227.66 sec. (55486.79 ticks, tree = 128.76 MB, solutions = 1)
  19378  8160    29618.5114   496     1071.9439    30383.0579   344038     --- 
  19979  9684    24179.4061   483     1071.9439    30383.0579   389825     --- 
  20629  8769    27330.5766   532     1071.9439    30238.7782   362580     --- 
  21314 11972    21242.7084   431     1071.9439    30238.7782   458754     --- 
  21906 11971    11543.3871   434     1071.9439    30225.8387   458873     --- 
  22446 13086     5468.5262   296     1071.9439    30225.8387   488236     --- 
  22963 10358    27503.8433   496     1071.9439    30225.8387   410987     --- 
  23530 12325     5993.7852   289     1071.9439    30180.9860   468000     --- 
  23964 12120    18021.9377   438     1071.9439    30180.9860   463632     --- 
  24536 13606    27187.0633   559     1071.9439    30041.3568   503396     --- 
Elapsed time = 281.72 sec. (65048.60 ticks, tree = 187.19 MB, solutions = 1)
  24985 14887     2999.2221   299     1071.9439    30041.3568   540290     --- 
  25347 13935    20874.2548   462     1071.9439    30041.3568   512299     --- 
  25693 14943     2877.5324   347     1071.9439    30041.3568   541910     --- 
  25961 18091    17505.4432   458     1071.9439    30041.3568   632527     --- 
  26336 18120     2748.2911   333     1071.9439    30041.3568   633299     --- 
  26727 15020    13521.3370   372     1071.9439    30041.3568   544682     --- 
  27116 15909     2389.8270   328     1071.9439    30041.3568   569468     --- 
  27550 16991     2659.5602   249     1071.9439    29784.3011   600852     --- 
  27995 18572    18331.4043   426     1071.9439    29784.3011   648276     --- 
  28490 18264    14355.9604   366     1071.9439    29784.3011   637787     --- 
Elapsed time = 330.36 sec. (74603.00 ticks, tree = 250.45 MB, solutions = 1)
  28987 18861     9706.4980   433     1071.9439    29784.3011   657365     --- 
  29518 19343     4362.7142   298     1071.9439    29784.3011   671145     --- 
  30044 20108    25808.1650   472     1071.9439    29784.3011   697116     --- 
  30600 19421        cutoff           1071.9439    29546.0317   674965     --- 
  31205 18929     2846.8656   366     1071.9439    29513.5693   659676     --- 
  31783 23741    27354.4712   555     1071.9439    29513.5693   813888     --- 
  32342 23775     8756.5209   424     1071.9439    29454.8113   815165     --- 
  32960 22178     1079.2021   366     1071.9439    29454.8113   761593     --- 
  33598 22282     4076.7959   310     1071.9439    29418.4059   766034     --- 
  34257 24191    19826.1774   444     1071.9439    29418.4059   828548     --- 
Elapsed time = 380.55 sec. (84156.81 ticks, tree = 331.21 MB, solutions = 1)
  34855 22289     9441.3460   391     1071.9439    29418.4059   765550     --- 
  35482 24255    12121.0374   381     1071.9439    29418.4059   830902     --- 
  36062 26320    28298.8037   532     1071.9439    29418.4059   899932     --- 
  36612 21984    24637.4986   464     1071.9439    29418.4059   755630     --- 
  37052 26386    14889.9196   476     1071.9439    29418.4059   902247     --- 
  37601 26417    23331.5805   446     1071.9439    29418.4059   903555     --- 
  38144 24146    10778.9628   357     1071.9439    29418.4059   827891     --- 
  38670 24305    13012.6560   410     1071.9439    29418.4059   832129     --- 
  39243 26795    15651.4490   398     1071.9439    29418.4059   916249     --- 
  39634 24663     6576.5170   266     1071.9439    29418.4059   843252     --- 
Elapsed time = 403.06 sec. (93705.81 ticks, tree = 337.46 MB, solutions = 1)
  40017 25212    27490.5148   491     1071.9439    29418.4059   861917     --- 
  40441 25646     7222.1168   351     1071.9439    29418.4059   877531     --- 
  40811 26569    14158.9645   464     1071.9439    29418.4059   909120     --- 
  41120 27691     1789.2857   163     1071.9439    29418.4059   946978     --- 
  41296 27735     1500.3022   289     1071.9439    29418.4059   948379     --- 
  41456 27769    12725.6903   409     1071.9439    29418.4059   949974     --- 

Cover cuts applied:  3
Implied bound cuts applied:  3
Flow cuts applied:  325
Mixed integer rounding cuts applied:  30
Lift and project cuts applied:  4

Root node processing (before b&c):
  Real time             =    4.13 sec. (5445.43 ticks)
Parallel b&c, 16 threads:
  Real time             =  400.39 sec. (94607.83 ticks)
  Sync time (average)   =    3.77 sec.
  Wait time (average)   =    0.06 sec.
                          ------------
Total (root+branch&cut) =  404.52 sec. (100053.26 ticks)

Solution pool: 1 solution saved.

MIP - Deterministic time limit exceeded, integer feasible:  Objective =  1.0719438695e+03
Current MIP best bound =  2.9090189755e+04 (gap = 28018.2, 2.6e+03%)
Solution time =  404.53 sec.  Iterations = 1132908  Nodes = 41545 (32854)
Deterministic time = 100053.57 ticks  (247.33 ticks/sec)

CPLEX> Incumbent solution written to file 'C:\Users\wenmi\Desktop\competitiveMPEC\logs\tmp64cvfm0f.cplex.sol'.
CPLEX> Exporting results... 
